NAME : XML100_3343_11
DIMENSION : 101
NB_CLUSTERS : 8
CLUSTERING_ALG : KMedoids
CLUSTERING_PARAMS : k(7)
CLUSTERS
1 0
2 1 2 7 9 15 20 21 31 32 34 37 41 43 51 55 68 86 91 93 94
3 4 13 17 40 44 52 60 61 66 71 73 80 84
4 3 8 23 24 33 49 50 53 56 62 75 99
5 6 10 39 42 48 54 81 82 83
6 14 26 30 47 63 64 65 87 90
7 5 16 18 19 22 25 35 36 38 45 46 57 59 67 70 76 78 79 98
8 11 12 27 28 29 58 69 72 74 77 85 88 89 92 95 96 97 100
EOF